language Essence 1.3

letting class be
        function(1 --> 1, 2 --> 2, 3 --> 1, 4 --> 1, 5 --> 1, 6 --> 2, 7 --> 2, 8 --> 1, 9 --> 2, 10 --> 1, 11 --> 1,
                 12 --> 1, 13 --> 2, 14 --> 2, 15 --> 2, 16 --> 1, 17 --> 2, 18 --> 2, 19 --> 2, 20 --> 1, 21 --> 2,
                 22 --> 2, 23 --> 1, 24 --> 1, 25 --> 2, 26 --> 1, 27 --> 1, 28 --> 2, 29 --> 1, 30 --> 2, 31 --> 2,
                 32 --> 2, 33 --> 1, 34 --> 1, 35 --> 1, 36 --> 2, 37 --> 1, 38 --> 2, 39 --> 2, 40 --> 2, 41 --> 2,
                 42 --> 1, 43 --> 2, 44 --> 2, 45 --> 2, 46 --> 2, 47 --> 1, 48 --> 2, 49 --> 2, 50 --> 2, 51 --> 1)
letting deck_length be 193
letting deck_width be 179
letting length be
        function(1 --> 1, 2 --> 1, 3 --> 3, 4 --> 1, 5 --> 1, 6 --> 1, 7 --> 1, 8 --> 1, 9 --> 1, 10 --> 1, 11 --> 1,
                 12 --> 4, 13 --> 1, 14 --> 1, 15 --> 1, 16 --> 1, 17 --> 1, 18 --> 1, 19 --> 1, 20 --> 1, 21 --> 1,
                 22 --> 1, 23 --> 1, 24 --> 3, 25 --> 1, 26 --> 1, 27 --> 1, 28 --> 1, 29 --> 1, 30 --> 1, 31 --> 5,
                 32 --> 1, 33 --> 1, 34 --> 1, 35 --> 1, 36 --> 1, 37 --> 92, 38 --> 1, 39 --> 5, 40 --> 1, 41 --> 1,
                 42 --> 1, 43 --> 1, 44 --> 1, 45 --> 1, 46 --> 1, 47 --> 1, 48 --> 1, 49 --> 1, 50 --> 2, 51 --> 6)
letting n_classes be 2
letting n_containers be 51
letting separation be function()
letting width be
        function(1 --> 1, 2 --> 1, 3 --> 125, 4 --> 1, 5 --> 1, 6 --> 1, 7 --> 1, 8 --> 1, 9 --> 1, 10 --> 1, 11 --> 1,
                 12 --> 92, 13 --> 1, 14 --> 1, 15 --> 1, 16 --> 1, 17 --> 1, 18 --> 1, 19 --> 1, 20 --> 1, 21 --> 1,
                 22 --> 1, 23 --> 1, 24 --> 170, 25 --> 1, 26 --> 1, 27 --> 1, 28 --> 1, 29 --> 1, 30 --> 1, 31 --> 1,
                 32 --> 1, 33 --> 1, 34 --> 1, 35 --> 1, 36 --> 1, 37 --> 26, 38 --> 1, 39 --> 18, 40 --> 1, 41 --> 1,
                 42 --> 1, 43 --> 1, 44 --> 1, 45 --> 1, 46 --> 1, 47 --> 1, 48 --> 1, 49 --> 1, 50 --> 1, 51 --> 60)
